==> CUTFACTOR            = 5
==> MAXTIME              = 3600
==> OUTPUTLOG            = 1
FICO Xpress v8.5.9, solve started 23:36:58, Jun 8, 2019
Maximizing MILP Seating model
Original problem has:
       230 rows          300 cols         7440 elements       300 globals
Presolved problem has:
       103 rows          204 cols         2431 elements       198 globals
LP relaxation tightened
Will try to keep branch and bound tree memory usage below 7.2GB
 *** Heuristic solution found:    22.000000      Time: 0 ***
Starting concurrent solve with dual

 Concurrent-Solve,   0s
            Dual        
    objective   dual inf
 D  102.00000   .0000000
------- optimal --------
Concurrent statistics:
      Dual: 34 simplex iterations, 0.00s
Optimal solution found
 
   Its         Obj Value      S   Ninf  Nneg   Sum Dual Inf  Time
    34        102.000000      D      0     0        .000000     0
Dual solved problem
  34 simplex iterations in 0s

Final objective                         : 1.020000000000000e+02
  Max primal violation      (abs / rel) : 1.110e-16 / 9.869e-17
  Max dual violation        (abs / rel) :       0.0 /       0.0
  Max complementarity viol. (abs / rel) :       0.0 /       0.0
All values within tolerances

Starting root cutting & heuristics
 
 Its Type    BestSoln    BestBound   Sols    Add    Del     Gap     GInf   Time
   1  K     22.000000   102.000000      1    161      0   78.43%      29      0
   2  K     22.000000   102.000000      1    172    142   78.43%      36      0
   3  K     22.000000   102.000000      1    155    166   78.43%      50      0
   4  K     22.000000   102.000000      1    147    145   78.43%      47      0
   5  K     22.000000   102.000000      1    178    148   78.43%      61      0
   6  K     22.000000   102.000000      1    168    165   78.43%      68      1
   7  K     22.000000   102.000000      1    151    162   78.43%      76      1
   8  K     22.000000   102.000000      1    158    152   78.43%      66      1
b           25.000000   102.000000      2                 75.49%       0      1
   9  K     25.000000   102.000000      2    151    153   75.49%      81      1
b           30.000000   102.000000      3                 70.59%       0      1
  10  K     30.000000   102.000000      3    151    142   70.59%      82      1
  11  K     30.000000   102.000000      3      5    142   70.59%      39      1
b           34.000000   102.000000      4                 66.67%       0      1
  12  K     34.000000   102.000000      4      2      6   66.67%      39      1
  13  K     34.000000   102.000000      4      1      4   66.67%      39      1
  14  K     34.000000   102.000000      4      1     11   66.67%      39      1
  15  K     34.000000   102.000000      4    152     16   66.67%      53      1
  16  K     34.000000   102.000000      4    164    133   66.67%      75      1
  17  K     34.000000   102.000000      4    154    165   66.67%      85      1
  18  K     34.000000   102.000000      4    156    141   66.67%     104      1
  19  K     34.000000   102.000000      4    122    154   66.67%     102      1
  20  K     34.000000   102.000000      4    111    223   66.67%      43      1
  21  G     34.000000   102.000000      4     51     27   66.67%      47      1
  22  G     34.000000   102.000000      4    121    163   66.67%      73      1
Heuristic search started
Heuristic search stopped
 
Cuts in the matrix         : 72
Cut elements in the matrix : 1883
 
Starting tree search.
Deterministic mode with up to 4 running threads and up to 8 tasks.
 
    Node     BestSoln    BestBound   Sols Active  Depth     Gap     GInf   Time
       1    34.000000   102.000000      4      2      1   66.67%      49      1
       2    34.000000   102.000000      4      2      2   66.67%      77      1
       3    34.000000   102.000000      4      2      3   66.67%      54      1
       4    34.000000   102.000000      4      2      2   66.67%      59      1
       5    34.000000   102.000000      4      2      4   66.67%      42      1
       6    34.000000   102.000000      4      5      3   66.67%      67      1
       7    34.000000   102.000000      4      5      3   66.67%      45      1
       8    34.000000   102.000000      4      5      4   66.67%      29      1
       9    34.000000   102.000000      4      8      4   66.67%      46      1
      10    34.000000   102.000000      4      8      4   66.67%      54      1
      20    34.000000   102.000000      4     17      9   66.67%      57      1
      31    34.000000   102.000000      4     17     15   66.67%      23      2
      51    34.000000   102.000000      4     17     28   66.67%      15      2
      61    34.000000   102.000000      4     39     10   66.67%      48      2
      78    34.000000   102.000000      4     39     16   66.67%      40      2
      89    34.000000   102.000000      4     39     19   66.67%      56      2
     107    34.000000   102.000000      4     39     25   66.67%      19      2
a    144    55.000000   102.000000      5     39     36   46.08%       0      2
     220    55.000000   102.000000      5     39     53   46.08%      32      2
B&B tree size: 2.1MB total
 
    Node     BestSoln    BestBound   Sols Active  Depth     Gap     GInf   Time
     327    55.000000   102.000000      5     78     52   46.08%      32      2
     443    55.000000   102.000000      5     78     54   46.08%      19      2
     544    55.000000   102.000000      5    165     25   46.08%      29      3
     645    55.000000   102.000000      5    165     41   46.08%      44      3
     746    55.000000   102.000000      5    266     47   46.08%      52      3
     865    55.000000   102.000000      5    266     28   46.08%      26      3
     973    55.000000   102.000000      5    266     16   46.08%      29      3
    1080    55.000000   102.000000      5    266     38   46.08%      22      3
    1195    55.000000   102.000000      5    266     53   46.08%      15      3
    1299    55.000000   102.000000      5    266     43   46.08%      34      3
    1412    55.000000   102.000000      5    266     40   46.08%      54      4
    1530    55.000000   102.000000      5    266     48   46.08%       4      4
    1635    55.000000   102.000000      5    266     51   46.08%      47      4
    1743    55.000000   102.000000      5    366     18   46.08%      19      4
    1846    55.000000   102.000000      5    461     45   46.08%      10      4
    1957    55.000000   102.000000      5    582      1   46.08%       1      4
    2063    55.000000   102.000000      5    681     38   46.08%      65      4
    2167    55.000000   102.000000      5    681     18   46.08%      32      4
    2278    55.000000   102.000000      5    681     44   46.08%      39      4
    2378    55.000000   101.604617      5    982      1   45.87%       1      5
B&B tree size: 11MB total
 
    Node     BestSoln    BestBound   Sols Active  Depth     Gap     GInf   Time
    2485    55.000000   101.604617      5    982     50   45.87%      31      5
    2604    55.000000   101.604617      5    982     64   45.87%      20      5
    2713    55.000000   101.604617      5    982     55   45.87%      38      5
    2817    55.000000   101.604617      5    982     42   45.87%      43      5
    2920    55.000000   101.604617      5    982     21   45.87%      23      5
    3026    55.000000   101.604617      5    982     22   45.87%      36      5
    3128    55.000000   101.604617      5    982     25   45.87%      26      5
    3243    55.000000   101.604617      5    982     36   45.87%      22      5
    3363    55.000000   101.604617      5   1206     43   45.87%      20      6
    3465    55.000000   101.604617      5   1206     55   45.87%      38      6
    3567    55.000000   101.604617      5   1392     64   45.87%      19      6
    3668    55.000000   101.604617      5   1392     50   45.87%      37      6
    3769    55.000000   101.604617      5   1392     57   45.87%      64      6
    3875    55.000000   101.604617      5   1392     32   45.87%      40      6
    3982    55.000000   101.604617      5   1392     58   45.87%      39      6
    4083    55.000000   101.604617      5   1392     55   45.87%      35      6
    4195    55.000000   101.604617      5   1392     43   45.87%      39      6
    4302    55.000000   101.604617      5   1392     46   45.87%      51      7
    4405    55.000000   101.604617      5   1392     61   45.87%      45      7
    4506    55.000000   101.604617      5   1392     55   45.87%      38      7
B&B tree size: 17MB total
 
    Node     BestSoln    BestBound   Sols Active  Depth     Gap     GInf   Time
    4630    55.000000   101.604617      5   1392     57   45.87%      39      7
    4737    55.000000   101.604617      5   1392     35   45.87%      22      7
    4839    55.000000   101.604617      5   1392     51   45.87%      32      7
    4939    55.000000   101.068861      5   1547     53   45.58%      37      7
    5051    55.000000   101.068861      5   1707     49   45.58%      43      7
    5158    55.000000   101.068861      5   1862     52   45.58%      32      7
    5263    55.000000   101.068861      5   1862     11   45.58%      31      7
    5369    55.000000   101.068861      5   1862     57   45.58%      28      8
    5479    55.000000   101.068861      5   1862     13   45.58%      50      8
    5584    55.000000   101.068861      5   2002     58   45.58%      24      8
    5694    55.000000   101.068861      5   2288      1   45.58%       1      8
    5796    55.000000   101.068861      5   2288     12   45.58%      55      8
    5900    55.000000   101.068861      5   2288     49   45.58%      56      8
    6005    55.000000   101.068861      5   2288     53   45.58%      40      8
    6134    55.000000   101.068861      5   2288     86   45.58%      20      8
    6247    55.000000   101.068861      5   2288     43   45.58%      53      9
    6355    55.000000   101.068861      5   2288     36   45.58%      47      9
    6467    55.000000   101.068861      5   2288     52   45.58%      46      9
    6583    55.000000   101.068861      5   2288     56   45.58%      43      9
    6692    55.000000   101.068861      5   2288     62   45.58%      22      9
B&B tree size: 23MB total
 
    Node     BestSoln    BestBound   Sols Active  Depth     Gap     GInf   Time
    6792    55.000000   101.068861      5   2539     46   45.58%      63      9
    6895    55.000000   101.068861      5   2539     63   45.58%      25      9
    7001    55.000000   101.068861      5   2678     60   45.58%      32      9
    7112    55.000000   101.068861      5   2678     47   45.58%      34     10
    7215    55.000000   101.068861      5   2678     62   45.58%      26     10
    7325    55.000000   101.068861      5   2678     52   45.58%      37     10
    7426    55.000000   101.068861      5   2791     47   45.58%      36     10
    7540    55.000000   101.068861      5   2861     55   45.58%      37     10
    7640    55.000000   101.068861      5   2861     61   45.58%      39     10
    7750    55.000000   101.068861      5   2861     42   45.58%      55     10
    7856    55.000000   101.068861      5   2861     53   45.58%      37     10
    7962    55.000000    96.907643      5   3180     33   43.24%      55     11
a   8047    59.000000    95.827848      6   3316     62   38.43%       0     11
    8062    59.000000    95.827848      6   3316     53   38.43%      39     11
    8215    59.000000    95.827848      6   3211      1   38.43%       1     11
    8321    59.000000    95.827848      6   3211     24   38.43%      27     11
    8430    59.000000    95.827848      6   3215     41   38.43%      58     11
    8536    59.000000    95.827848      6   3215     45   38.43%      32     11
    8639    59.000000    95.827848      6   3215     63   38.43%      25     11
    8756    59.000000    95.827848      6   3215     58   38.43%      32     11
B&B tree size: 25MB total
 
    Node     BestSoln    BestBound   Sols Active  Depth     Gap     GInf   Time
    8860    59.000000    95.827848      6   3215     56   38.43%      17     11
    8973    59.000000    95.827848      6   3374      1   38.43%       1     11
    9086    59.000000    95.827848      6   3374     23   38.43%      32     11
    9189    59.000000    95.098195      6   3571     32   37.96%      39     12
    9291    59.000000    95.098195      6   3571     52   37.96%      40     12
    9396    59.000000    95.098195      6   3571     49   37.96%      21     12
    9501    59.000000    95.098195      6   3571     34   37.96%      58     12
    9605    59.000000    95.098195      6   3599      1   37.96%       1     12
    9705    59.000000    95.098195      6   3599     50   37.96%      42     12
    9808    59.000000    95.098195      6   3599     59   37.96%      17     12
    9912    59.000000    95.098195      6   3599     41   37.96%      26     12
   10015    59.000000    93.442818      6   3719     54   36.86%      36     12
   11018    59.000000    93.442818      6   4044     54   36.86%      37     13
R  11553    60.000000    91.912546      7   4185     12   34.72%       0     14
   12020    60.000000    91.690074      7   4193     51   34.56%      51     14
   13020    60.000000    91.690074      7   4348     46   34.56%      49     15
   14040    60.000000    90.848076      7   4814     61   33.96%      21     16
   15048    60.000000    90.303571      7   4985     57   33.56%      39     17
   16055    60.000000    89.260771      7   5317     55   32.78%      38     18
   17056    60.000000    88.719147      7   5538     64   32.37%      34     19
B&B tree size: 38MB total
 
    Node     BestSoln    BestBound   Sols Active  Depth     Gap     GInf   Time
   18058    60.000000    88.136182      7   5641     60   31.92%      24     20
   19068    60.000000    88.136182      7   5706     41   31.92%      36     21
   20069    60.000000    87.895977      7   6439     72   31.74%      35     22
   21069    60.000000    87.895977      7   6586     24   31.74%      25     23
   22072    60.000000    87.440077      7   6772     35   31.38%      44     23
   23075    60.000000    87.000000      7   7048     38   31.03%      24     24
   24080    60.000000    87.000000      7   7359     25   31.03%      18     25
   25085    60.000000    86.502177      7   7501     54   30.64%      45     26
   26091    60.000000    85.853453      7   7834     49   30.11%      48     27
   27094    60.000000    85.022286      7   8099     16   29.43%      17     28
   28096    60.000000    85.000000      7   8105     41   29.41%      56     29
   29098    60.000000    85.000000      7   8550     64   29.41%      19     30
   30098    60.000000    85.000000      7   8657     58   29.41%      36     31
   31101    60.000000    84.733333      7   8944     63   29.19%      22     32
   32101    60.000000    84.733333      7   9102      1   29.19%       1     33
   33112    60.000000    84.095273      7   9272     62   28.65%      29     33
   34122    60.000000    84.000000      7   9476     43   28.57%      21     34
   35133    60.000000    83.332138      7   9745     63   28.00%      37     35
   36139    60.000000    83.078517      7   9818     61   27.78%      30     36
   37141    60.000000    83.000000      7  10078     34   27.71%      30     37
B&B tree size: 65MB total
 
    Node     BestSoln    BestBound   Sols Active  Depth     Gap     GInf   Time
   38145    60.000000    83.000000      7  10308     43   27.71%      26     38
   39147    60.000000    83.000000      7  10399     62   27.71%      37     39
   40163    60.000000    82.874275      7  10574     56   27.60%      32     40
   41166    60.000000    82.189345      7  10681     27   27.00%      32     41
   42182    60.000000    82.000000      7  10803     31   26.83%      27     42
   43192    60.000000    82.000000      7  10927     42   26.83%      46     43
   44192    60.000000    82.000000      7  11313     54   26.83%      40     44
   45197    60.000000    82.000000      7  11565     33   26.83%      38     45
   46206    60.000000    82.000000      7  11737     27   26.83%      27     46
   47216    60.000000    82.000000      7  11969     39   26.83%      35     47
   48221    60.000000    82.000000      7  12119     57   26.83%      37     48
   49242    60.000000    82.000000      7  12375     51   26.83%      37     49
   50252    60.000000    82.000000      7  12440     42   26.83%      35     50
   51261    60.000000    82.000000      7  12749     54   26.83%      23     51
User interrupt (9) triggered.
 *** Search unfinished ***    Time:    52 Nodes:      51618
Number of integer feasible solutions found is 7
Best integer solution found is    60.000000
Best bound is    81.868927
